NAME: tsp25_11
COMMENT: 25-tsp problem (Padberg/Rinaldi)
TYPE: TSP
DIMENSION: 25
EDGE_WEIGHT_TYPE : EUC_2D
NODE_COORD_SECTION
1 36 18
2 20 29
3 3 10
4 28 23
5 19 36
6 15 24
7 22 2
8 23 1
9 25 34
10 29 0
11 33 21
12 14 38
13 1 33
14 13 7
15 5 4
16 23 14
17 18 12
18 32 30
19 20 33
20 17 13
21 15 16
22 17 29
23 21 33
24 39 9
25 24 7
